examples/dynamic/debug6/ball_count_2d_hill_simple.01.qfree_global_2.smt2
(set-info :smt-lib-version 2.6)
(set-logic QF_NRA)
(set-info :source |Benchmarks generated from hycomp (https://es-static.fbk.eu/tools/hycomp/). BMC instances of non-linear hybrid automata taken from: Alessandro Cimatti, Sergio Mover, Stefano Tonetta, A quantifier-free SMT encoding of non-linear hybrid automata, FMCAD 2012 and Alessandro Cimatti, Sergio Mover, Stefano Tonetta, Quantier-free encoding of invariants for Hybrid Systems, Formal Methods in System Design. This instance solves a BMC problem of depth 2 and uses the encoding obtained with quantifier elimination using qepcad encoding. Contacts: Sergio Mover (mover@fbk.eu), Stefano Tonetta (tonettas@fbk.eu), Alessandro Cimatti (cimatti@fbk.eu).|)
(set-info :category "industrial")
(set-info :status sat)
;; MathSAT API call trace
;; generated on Mon Mar 19 10:41:21 2012
(declare-fun b.event_is_timed__AT0 () Bool)
(declare-fun b.time__AT0 () Real)
(declare-fun b.EVENT.1__AT1 () Bool)
(declare-fun b.counter.1__AT2 () Bool)
(declare-fun b.delta__AT0 () Real)
(declare-fun b.y__AT2 () Real)
(declare-fun b.y__AT0 () Real)
(declare-fun b.speed_y__AT2 () Real)
(declare-fun b.event_is_timed__AT2 () Bool)
(declare-fun b.counter.0__AT0 () Bool)
(declare-fun b.EVENT.1__AT0 () Bool)
(declare-fun b.EVENT.0__AT0 () Bool)
(declare-fun b.counter.3__AT0 () Bool)
(declare-fun b.counter.1__AT0 () Bool)
(declare-fun b.bool_atom__AT1 () Bool)
(declare-fun b.counter.2__AT2 () Bool)
(declare-fun b.time__AT2 () Real)
(declare-fun b.counter.3__AT2 () Bool)
(declare-fun b.delta__AT2 () Real)
(declare-fun b.bool_atom__AT2 () Bool)
(declare-fun b.EVENT.0__AT2 () Bool)
(declare-fun b.g__AT0 () Real)
(declare-fun b.event_is_timed__AT1 () Bool)
(declare-fun b.speed_y__AT0 () Real)
(declare-fun b.EVENT.1__AT2 () Bool)
(declare-fun b.y__AT1 () Real)
(declare-fun b.counter.2__AT0 () Bool)
(declare-fun b.counter.0__AT1 () Bool)
(declare-fun b.counter.1__AT1 () Bool)
(declare-fun b.counter.2__AT1 () Bool)
(declare-fun b.counter.3__AT1 () Bool)
(declare-fun b.x__AT1 () Real)
(declare-fun b.bool_atom__AT0 () Bool)
(declare-fun b.x__AT0 () Real)
(declare-fun b.delta__AT1 () Real)
(declare-fun b.speed_y__AT1 () Real)
(declare-fun b.x__AT2 () Real)
(declare-fun b.time__AT1 () Real)
(declare-fun b.EVENT.0__AT1 () Bool)
(declare-fun b.counter.0__AT2 () Bool)
(assert (let ((.def_439 (* 5.0 b.delta__AT2)))
(let ((.def_440 (* b.delta__AT2 .def_439)))
(let ((.def_441 (* (- 1.0) .def_440)))
(let ((.def_437 (* b.speed_y__AT2 b.delta__AT2)))
(let ((.def_444 (+ .def_437 .def_441)))
(let ((.def_434 (* b.x__AT2 b.x__AT2)))
(let ((.def_445 (+ .def_434 .def_444)))
(let ((.def_446 (+ b.y__AT2 .def_445)))
(let ((.def_447 (<= 0.0 .def_446)))
(let ((.def_435 (+ b.y__AT2 .def_434)))
(let ((.def_436 (<= 0.0 .def_435)))
(let ((.def_448 (and .def_436 .def_447)))
(let ((.def_432 (<= 0.0 b.delta__AT2)))
(let ((.def_433 (not .def_432)))
(let ((.def_449 (or .def_433 .def_448)))
(let ((.def_415 (not b.EVENT.0__AT2)))
(let ((.def_413 (not b.EVENT.1__AT2)))
(let ((.def_429 (and .def_413 .def_415)))
(let ((.def_430 (not .def_429)))
(let ((.def_450 (or .def_430 .def_449)))
(let ((.def_158 (not b.counter.0__AT1)))
(let ((.def_148 (not b.counter.1__AT1)))
(let ((.def_424 (and .def_148 .def_158)))
(let ((.def_153 (not b.counter.2__AT1)))
(let ((.def_425 (and .def_153 .def_424)))
(let ((.def_167 (not b.counter.3__AT1)))
(let ((.def_426 (and .def_167 .def_425)))
(let ((.def_418 (* (- 1.0) b.x__AT2)))
(let ((.def_419 (* b.x__AT2 .def_418)))
(let ((.def_420 (<= .def_419 b.y__AT2)))
(let ((.def_60 (<= b.g__AT0 10.0 )))
(let ((.def_59 (<= 8.0 b.g__AT0)))
(let ((.def_61 (and .def_59 .def_60)))
(let ((.def_421 (and .def_61 .def_420)))
(let ((.def_416 (or .def_413 .def_415)))
(let ((.def_6 (not b.counter.0__AT2)))
(let ((.def_4 (not b.counter.1__AT2)))
(let ((.def_406 (or .def_4 .def_6)))
(let ((.def_410 (or b.counter.3__AT2 .def_406)))
(let ((.def_407 (or b.counter.2__AT2 .def_406)))
(let ((.def_9 (not b.counter.2__AT2)))
(let ((.def_405 (or .def_6 .def_9)))
(let ((.def_408 (and .def_405 .def_407)))
(let ((.def_12 (not b.counter.3__AT2)))
(let ((.def_409 (or .def_12 .def_408)))
(let ((.def_411 (and .def_409 .def_410)))
(let ((.def_417 (and .def_411 .def_416)))
(let ((.def_422 (and .def_417 .def_421)))
(let ((.def_257 (<= 0.0 b.delta__AT1)))
(let ((.def_243 (not b.EVENT.0__AT1)))
(let ((.def_241 (not b.EVENT.1__AT1)))
(let ((.def_254 (and .def_241 .def_243)))
(let ((.def_255 (not .def_254)))
(let ((.def_401 (or .def_255 .def_257)))
(let ((.def_402 (or b.EVENT.1__AT1 .def_401)))
(let ((.def_312 (= b.bool_atom__AT1 b.bool_atom__AT2)))
(let ((.def_308 (= b.counter.0__AT2 b.counter.0__AT1)))
(let ((.def_306 (= b.counter.1__AT2 b.counter.1__AT1)))
(let ((.def_304 (= b.counter.2__AT2 b.counter.2__AT1)))
(let ((.def_303 (= b.counter.3__AT2 b.counter.3__AT1)))
(let ((.def_305 (and .def_303 .def_304)))
(let ((.def_307 (and .def_305 .def_306)))
(let ((.def_309 (and .def_307 .def_308)))
(let ((.def_397 (and .def_309 .def_312)))
(let ((.def_398 (or .def_255 .def_397)))
(let ((.def_399 (or b.EVENT.1__AT1 .def_398)))
(let ((.def_199 (* (- 1.0) b.g__AT0)))
(let ((.def_386 (* .def_199 b.delta__AT1)))
(let ((.def_387 (* (- 1.0) b.speed_y__AT2)))
(let ((.def_390 (+ .def_387 .def_386)))
(let ((.def_391 (+ b.speed_y__AT1 .def_390)))
(let ((.def_392 (= .def_391 0.0 )))
(let ((.def_375 (* b.delta__AT1 b.delta__AT1)))
(let ((.def_202 (* (/ 1 2) .def_199)))
(let ((.def_376 (* .def_202 .def_375)))
(let ((.def_377 (* (- 1.0) b.y__AT2)))
(let ((.def_381 (+ .def_377 .def_376)))
(let ((.def_262 (* b.speed_y__AT1 b.delta__AT1)))
(let ((.def_382 (+ .def_262 .def_381)))
(let ((.def_383 (+ b.y__AT1 .def_382)))
(let ((.def_384 (= .def_383 0.0 )))
(let ((.def_295 (= b.x__AT1 b.x__AT2)))
(let ((.def_385 (and .def_295 .def_384)))
(let ((.def_393 (and .def_385 .def_392)))
(let ((.def_394 (or .def_255 .def_393)))
(let ((.def_298 (= b.y__AT1 b.y__AT2)))
(let ((.def_370 (and .def_295 .def_298)))
(let ((.def_301 (= b.speed_y__AT1 b.speed_y__AT2)))
(let ((.def_371 (and .def_301 .def_370)))
(let ((.def_367 (= b.delta__AT1 0.0 )))
(let ((.def_368 (and .def_254 .def_367)))
(let ((.def_369 (not .def_368)))
(let ((.def_372 (or .def_369 .def_371)))
(let ((.def_373 (or b.EVENT.1__AT1 .def_372)))
(let ((.def_360 (and .def_301 .def_309)))
(let ((.def_361 (or b.bool_atom__AT1 .def_360)))
(let ((.def_336 (or .def_6 b.counter.0__AT1)))
(let ((.def_335 (or b.counter.0__AT2 .def_158)))
(let ((.def_337 (and .def_335 .def_336)))
(let ((.def_338 (and .def_4 .def_337)))
(let ((.def_339 (or b.counter.1__AT1 .def_338)))
(let ((.def_334 (or b.counter.1__AT2 .def_148)))
(let ((.def_340 (and .def_334 .def_339)))
(let ((.def_351 (and .def_9 .def_340)))
(let ((.def_352 (or b.counter.2__AT1 .def_351)))
(let ((.def_346 (and .def_4 .def_158)))
(let ((.def_347 (or b.counter.1__AT1 .def_346)))
(let ((.def_348 (and .def_334 .def_347)))
(let ((.def_349 (and b.counter.2__AT2 .def_348)))
(let ((.def_350 (or .def_153 .def_349)))
(let ((.def_353 (and .def_350 .def_352)))
(let ((.def_354 (and b.counter.3__AT2 .def_353)))
(let ((.def_355 (or b.counter.3__AT1 .def_354)))
(let ((.def_341 (and b.counter.2__AT2 .def_340)))
(let ((.def_342 (or b.counter.2__AT1 .def_341)))
(let ((.def_330 (or b.counter.1__AT2 b.counter.1__AT1)))
(let ((.def_328 (and .def_4 b.counter.0__AT2)))
(let ((.def_329 (or .def_148 .def_328)))
(let ((.def_331 (and .def_329 .def_330)))
(let ((.def_332 (and .def_9 .def_331)))
(let ((.def_333 (or .def_153 .def_332)))
(let ((.def_343 (and .def_333 .def_342)))
(let ((.def_344 (and .def_12 .def_343)))
(let ((.def_345 (or .def_167 .def_344)))
(let ((.def_356 (and .def_345 .def_355)))
(let ((.def_325 (* b.speed_y__AT2 b.speed_y__AT2)))
(let ((.def_144 (* b.speed_y__AT1 b.speed_y__AT1)))
(let ((.def_326 (= .def_144 .def_325)))
(let ((.def_323 (+ b.speed_y__AT1 b.speed_y__AT2)))
(let ((.def_324 (= .def_323 0.0 )))
(let ((.def_327 (and .def_324 .def_326)))
(let ((.def_357 (and .def_327 .def_356)))
(let ((.def_322 (not b.bool_atom__AT1)))
(let ((.def_358 (or .def_322 .def_357)))
(let ((.def_318 (<= 0.0 b.speed_y__AT1)))
(let ((.def_319 (not .def_318)))
(let ((.def_246 (* (- 1.0) b.x__AT1)))
(let ((.def_247 (* b.x__AT1 .def_246)))
(let ((.def_317 (= b.y__AT1 .def_247)))
(let ((.def_320 (and .def_317 .def_319)))
(let ((.def_321 (= b.bool_atom__AT1 .def_320)))
(let ((.def_359 (and .def_321 .def_358)))
(let ((.def_362 (and .def_359 .def_361)))
(let ((.def_363 (and .def_295 .def_362)))
(let ((.def_364 (and .def_298 .def_363)))
(let ((.def_365 (or .def_254 .def_364)))
(let ((.def_366 (or b.EVENT.1__AT1 .def_365)))
(let ((.def_374 (and .def_366 .def_373)))
(let ((.def_395 (and .def_374 .def_394)))
(let ((.def_282 (= b.time__AT1 b.time__AT2)))
(let ((.def_296 (and .def_282 .def_295)))
(let ((.def_299 (and .def_296 .def_298)))
(let ((.def_302 (and .def_299 .def_301)))
(let ((.def_310 (and .def_302 .def_309)))
(let ((.def_313 (and .def_310 .def_312)))
(let ((.def_314 (or .def_241 .def_313)))
(let ((.def_285 (* (- 1.0) b.time__AT2)))
(let ((.def_288 (+ b.delta__AT1 .def_285)))
(let ((.def_289 (+ b.time__AT1 .def_288)))
(let ((.def_290 (= .def_289 0.0 )))
(let ((.def_291 (or .def_255 .def_290)))
(let ((.def_292 (or b.EVENT.1__AT1 .def_291)))
(let ((.def_283 (or .def_254 .def_282)))
(let ((.def_284 (or b.EVENT.1__AT1 .def_283)))
(let ((.def_293 (and .def_284 .def_292)))
(let ((.def_315 (and .def_293 .def_314)))
(let ((.def_279 (= .def_255 b.event_is_timed__AT2)))
(let ((.def_277 (= b.event_is_timed__AT1 .def_254)))
(let ((.def_280 (and .def_277 .def_279)))
(let ((.def_316 (and .def_280 .def_315)))
(let ((.def_396 (and .def_316 .def_395)))
(let ((.def_400 (and .def_396 .def_399)))
(let ((.def_403 (and .def_400 .def_402)))
(let ((.def_404 (and .def_241 .def_403)))
(let ((.def_423 (and .def_404 .def_422)))
(let ((.def_427 (and .def_423 .def_426)))
(let ((.def_264 (* 5.0 b.delta__AT1)))
(let ((.def_265 (* b.delta__AT1 .def_264)))
(let ((.def_266 (* (- 1.0) .def_265)))
(let ((.def_269 (+ .def_262 .def_266)))
(let ((.def_259 (* b.x__AT1 b.x__AT1)))
(let ((.def_270 (+ .def_259 .def_269)))
(let ((.def_271 (+ b.y__AT1 .def_270)))
(let ((.def_272 (<= 0.0 .def_271)))
(let ((.def_260 (+ b.y__AT1 .def_259)))
(let ((.def_261 (<= 0.0 .def_260)))
(let ((.def_273 (and .def_261 .def_272)))
(let ((.def_258 (not .def_257)))
(let ((.def_274 (or .def_258 .def_273)))
(let ((.def_275 (or .def_255 .def_274)))
(let ((.def_248 (<= .def_247 b.y__AT1)))
(let ((.def_249 (and .def_61 .def_248)))
(let ((.def_244 (or .def_241 .def_243)))
(let ((.def_234 (or .def_148 .def_158)))
(let ((.def_238 (or b.counter.3__AT1 .def_234)))
(let ((.def_235 (or b.counter.2__AT1 .def_234)))
(let ((.def_233 (or .def_153 .def_158)))
(let ((.def_236 (and .def_233 .def_235)))
(let ((.def_237 (or .def_167 .def_236)))
(let ((.def_239 (and .def_237 .def_238)))
(let ((.def_245 (and .def_239 .def_244)))
(let ((.def_250 (and .def_245 .def_249)))
(let ((.def_69 (<= 0.0 b.delta__AT0)))
(let ((.def_49 (not b.EVENT.0__AT0)))
(let ((.def_47 (not b.EVENT.1__AT0)))
(let ((.def_66 (and .def_47 .def_49)))
(let ((.def_67 (not .def_66)))
(let ((.def_229 (or .def_67 .def_69)))
(let ((.def_230 (or b.EVENT.1__AT0 .def_229)))
(let ((.def_131 (= b.bool_atom__AT0 b.bool_atom__AT1)))
(let ((.def_126 (= b.counter.0__AT0 b.counter.0__AT1)))
(let ((.def_123 (= b.counter.1__AT0 b.counter.1__AT1)))
(let ((.def_120 (= b.counter.2__AT0 b.counter.2__AT1)))
(let ((.def_118 (= b.counter.3__AT0 b.counter.3__AT1)))
(let ((.def_121 (and .def_118 .def_120)))
(let ((.def_124 (and .def_121 .def_123)))
(let ((.def_127 (and .def_124 .def_126)))
(let ((.def_225 (and .def_127 .def_131)))
(let ((.def_226 (or .def_67 .def_225)))
(let ((.def_227 (or b.EVENT.1__AT0 .def_226)))
(let ((.def_214 (* b.delta__AT0 .def_199)))
(let ((.def_215 (* (- 1.0) b.speed_y__AT1)))
(let ((.def_218 (+ .def_215 .def_214)))
(let ((.def_219 (+ b.speed_y__AT0 .def_218)))
(let ((.def_220 (= .def_219 0.0 )))
(let ((.def_203 (* b.delta__AT0 b.delta__AT0)))
(let ((.def_204 (* .def_202 .def_203)))
(let ((.def_206 (* (- 1.0) b.y__AT1)))
(let ((.def_209 (+ .def_206 .def_204)))
(let ((.def_75 (* b.delta__AT0 b.speed_y__AT0)))
(let ((.def_210 (+ .def_75 .def_209)))
(let ((.def_211 (+ b.y__AT0 .def_210)))
(let ((.def_212 (= .def_211 0.0 )))
(let ((.def_109 (= b.x__AT0 b.x__AT1)))
(let ((.def_213 (and .def_109 .def_212)))
(let ((.def_221 (and .def_213 .def_220)))
(let ((.def_222 (or .def_67 .def_221)))
(let ((.def_112 (= b.y__AT0 b.y__AT1)))
(let ((.def_194 (and .def_109 .def_112)))
(let ((.def_115 (= b.speed_y__AT0 b.speed_y__AT1)))
(let ((.def_195 (and .def_115 .def_194)))
(let ((.def_191 (= b.delta__AT0 0.0 )))
(let ((.def_192 (and .def_66 .def_191)))
(let ((.def_193 (not .def_192)))
(let ((.def_196 (or .def_193 .def_195)))
(let ((.def_197 (or b.EVENT.1__AT0 .def_196)))
(let ((.def_184 (and .def_115 .def_127)))
(let ((.def_185 (or b.bool_atom__AT0 .def_184)))
(let ((.def_159 (or b.counter.0__AT0 .def_158)))
(let ((.def_30 (not b.counter.0__AT0)))
(let ((.def_157 (or .def_30 b.counter.0__AT1)))
(let ((.def_160 (and .def_157 .def_159)))
(let ((.def_161 (and .def_148 .def_160)))
(let ((.def_162 (or b.counter.1__AT0 .def_161)))
(let ((.def_28 (not b.counter.1__AT0)))
(let ((.def_156 (or .def_28 b.counter.1__AT1)))
(let ((.def_163 (and .def_156 .def_162)))
(let ((.def_175 (and .def_153 .def_163)))
(let ((.def_176 (or b.counter.2__AT0 .def_175)))
(let ((.def_170 (and .def_30 .def_148)))
(let ((.def_171 (or b.counter.1__AT0 .def_170)))
(let ((.def_172 (and .def_156 .def_171)))
(let ((.def_173 (and b.counter.2__AT1 .def_172)))
(let ((.def_33 (not b.counter.2__AT0)))
(let ((.def_174 (or .def_33 .def_173)))
(let ((.def_177 (and .def_174 .def_176)))
(let ((.def_178 (and b.counter.3__AT1 .def_177)))
(let ((.def_179 (or b.counter.3__AT0 .def_178)))
(let ((.def_164 (and b.counter.2__AT1 .def_163)))
(let ((.def_165 (or b.counter.2__AT0 .def_164)))
(let ((.def_151 (or b.counter.1__AT0 b.counter.1__AT1)))
(let ((.def_149 (and b.counter.0__AT1 .def_148)))
(let ((.def_150 (or .def_28 .def_149)))
(let ((.def_152 (and .def_150 .def_151)))
(let ((.def_154 (and .def_152 .def_153)))
(let ((.def_155 (or .def_33 .def_154)))
(let ((.def_166 (and .def_155 .def_165)))
(let ((.def_168 (and .def_166 .def_167)))
(let ((.def_36 (not b.counter.3__AT0)))
(let ((.def_169 (or .def_36 .def_168)))
(let ((.def_180 (and .def_169 .def_179)))
(let ((.def_145 (* b.speed_y__AT0 b.speed_y__AT0)))
(let ((.def_146 (= .def_144 .def_145)))
(let ((.def_142 (+ b.speed_y__AT0 b.speed_y__AT1)))
(let ((.def_143 (= .def_142 0.0 )))
(let ((.def_147 (and .def_143 .def_146)))
(let ((.def_181 (and .def_147 .def_180)))
(let ((.def_141 (not b.bool_atom__AT0)))
(let ((.def_182 (or .def_141 .def_181)))
(let ((.def_137 (<= 0.0 b.speed_y__AT0)))
(let ((.def_138 (not .def_137)))
(let ((.def_54 (* (- 1.0) b.x__AT0)))
(let ((.def_55 (* b.x__AT0 .def_54)))
(let ((.def_136 (= b.y__AT0 .def_55)))
(let ((.def_139 (and .def_136 .def_138)))
(let ((.def_140 (= b.bool_atom__AT0 .def_139)))
(let ((.def_183 (and .def_140 .def_182)))
(let ((.def_186 (and .def_183 .def_185)))
(let ((.def_187 (and .def_109 .def_186)))
(let ((.def_188 (and .def_112 .def_187)))
(let ((.def_189 (or .def_66 .def_188)))
(let ((.def_190 (or b.EVENT.1__AT0 .def_189)))
(let ((.def_198 (and .def_190 .def_197)))
(let ((.def_223 (and .def_198 .def_222)))
(let ((.def_96 (= b.time__AT0 b.time__AT1)))
(let ((.def_110 (and .def_96 .def_109)))
(let ((.def_113 (and .def_110 .def_112)))
(let ((.def_116 (and .def_113 .def_115)))
(let ((.def_128 (and .def_116 .def_127)))
(let ((.def_132 (and .def_128 .def_131)))
(let ((.def_133 (or .def_47 .def_132)))
(let ((.def_99 (* (- 1.0) b.time__AT1)))
(let ((.def_102 (+ b.delta__AT0 .def_99)))
(let ((.def_103 (+ b.time__AT0 .def_102)))
(let ((.def_104 (= .def_103 0.0 )))
(let ((.def_105 (or .def_67 .def_104)))
(let ((.def_106 (or b.EVENT.1__AT0 .def_105)))
(let ((.def_97 (or .def_66 .def_96)))
(let ((.def_98 (or b.EVENT.1__AT0 .def_97)))
(let ((.def_107 (and .def_98 .def_106)))
(let ((.def_134 (and .def_107 .def_133)))
(let ((.def_93 (= .def_67 b.event_is_timed__AT1)))
(let ((.def_91 (= b.event_is_timed__AT0 .def_66)))
(let ((.def_94 (and .def_91 .def_93)))
(let ((.def_135 (and .def_94 .def_134)))
(let ((.def_224 (and .def_135 .def_223)))
(let ((.def_228 (and .def_224 .def_227)))
(let ((.def_231 (and .def_228 .def_230)))
(let ((.def_232 (and .def_47 .def_231)))
(let ((.def_251 (and .def_232 .def_250)))
(let ((.def_31 (and .def_28 .def_30)))
(let ((.def_34 (and .def_31 .def_33)))
(let ((.def_37 (and .def_34 .def_36)))
(let ((.def_252 (and .def_37 .def_251)))
(let ((.def_78 (* 5.0 b.delta__AT0)))
(let ((.def_79 (* b.delta__AT0 .def_78)))
(let ((.def_80 (* (- 1.0) .def_79)))
(let ((.def_83 (+ .def_75 .def_80)))
(let ((.def_71 (* b.x__AT0 b.x__AT0)))
(let ((.def_84 (+ .def_71 .def_83)))
(let ((.def_85 (+ b.y__AT0 .def_84)))
(let ((.def_86 (<= 0.0 .def_85)))
(let ((.def_72 (+ b.y__AT0 .def_71)))
(let ((.def_73 (<= 0.0 .def_72)))
(let ((.def_87 (and .def_73 .def_86)))
(let ((.def_70 (not .def_69)))
(let ((.def_88 (or .def_70 .def_87)))
(let ((.def_89 (or .def_67 .def_88)))
(let ((.def_56 (<= .def_55 b.y__AT0)))
(let ((.def_62 (and .def_56 .def_61)))
(let ((.def_50 (or .def_47 .def_49)))
(let ((.def_40 (or .def_28 .def_30)))
(let ((.def_44 (or b.counter.3__AT0 .def_40)))
(let ((.def_41 (or b.counter.2__AT0 .def_40)))
(let ((.def_39 (or .def_30 .def_33)))
(let ((.def_42 (and .def_39 .def_41)))
(let ((.def_43 (or .def_36 .def_42)))
(let ((.def_45 (and .def_43 .def_44)))
(let ((.def_51 (and .def_45 .def_50)))
(let ((.def_63 (and .def_51 .def_62)))
(let ((.def_25 (= b.y__AT0 10.0 )))
(let ((.def_21 (= b.x__AT0 0.0 )))
(let ((.def_17 (= b.time__AT0 0.0 )))
(let ((.def_19 (and .def_17 b.event_is_timed__AT0)))
(let ((.def_22 (and .def_19 .def_21)))
(let ((.def_26 (and .def_22 .def_25)))
(let ((.def_38 (and .def_26 .def_37)))
(let ((.def_64 (and .def_38 .def_63)))
(let ((.def_7 (and .def_4 .def_6)))
(let ((.def_10 (and .def_7 .def_9)))
(let ((.def_13 (and .def_10 .def_12)))
(let ((.def_14 (not .def_13)))
(let ((.def_65 (and .def_14 .def_64)))
(let ((.def_90 (and .def_65 .def_89)))
(let ((.def_253 (and .def_90 .def_252)))
(let ((.def_276 (and .def_253 .def_275)))
(let ((.def_428 (and .def_276 .def_427)))
(let ((.def_451 (and .def_428 .def_450)))
.def_451)))))))))))))))))))))))))))))))))))))))))))))))))))))))))))))))))))))))))))))))))))))))))))))))))))))))))))))))))))))))))))))))))))))))))))))))))))))))))))))))))))))))))))))))))))))))))))))))))))))))))))))))))))))))))))))))))))))))))))))))))))))))))))))))))))))))))))))))))))))))))))))))))))))))))))))))))))))))))))))))))))))))))))))))))))))))))))))))))))))))))))))))))))))))))))
(check-sat)
(exit)
