z3_origin/ball_count_2d_hill_simple.01.qfree_global_2.txt
sat
(:cnf-encoding-aux-vars 5
 :max-memory            18.63
 :memory                18.42
 :nlsat-arith-var       5
 :nlsat-atoms           27
 :nlsat-bool-var        13
 :nlsat-clauses         41
 :nlsat-conflicts       2
 :nlsat-decisions       10
 :nlsat-propagations    27
 :nlsat-stages          7
 :num-allocs            79675
 :rlimit-count          6723
 :solve-eqs-elim-vars   26
 :solve-eqs-steps       49
 :time                  0.01
 :total-time            0.02)
